14 11
27 67
61 30
1 46
40 84
70 98
2 95
71 66
23 51
3 85
99 11
47 1
80 26
38 86
26 35
24 57
70 61
58 100
38 27
53 95
97 89
53 73
67 17
86 10
62 41
57 7
16 21
71 37
80 47
97 27
76 88
45 49
96 48
33 30
12 41
30 23
82 20
98 26
10 8
83 43
